COMUNI = {
	gubbio,
	foligno,
	citta_di_castello,
	amelia,
	magione,
};

NUMERO_COMUNI = 5;

ABITANTI_PER_COMUNE = [30, 55, 38, 11, 14];

STRADE_TRA_COMUNI = [|
	false, false, true, false, false |
	false, false, false, false, false |
	true, false, false, false, false |
	false, false, false, false, false |
	false, false, false, false, false |
|];

RICHIESTE = [|
	5, 42, 140, 118, 7 |
	96, 10, 14, 29, 25 |
	8, 8, 16, 50, 23 |
	5, 41, 62, 17, 36 |
	45, 27, 18, 101, 45 |
|];
